data/lp_files/pEFS/38_7.lp
\ Model foo
\ LP format - for model browsing. Use MPS format to capture full model detail.
Minimize
  z
Subject To
 allocateEach[1]: x[1,1] + x[2,1] = 1
 allocateEach[2]: x[1,2] + x[2,2] = 1
 allocateEach[3]: x[1,3] + x[2,3] = 1
 allocateEach[4]: x[1,4] + x[2,4] = 1
 allocateEach[5]: x[1,5] + x[2,5] = 1
 allocateEach[6]: x[1,6] + x[2,6] = 1
 allocateEach[7]: x[1,7] + x[2,7] = 1
 allocateEach[8]: x[1,8] + x[2,8] = 1
 allocateEach[9]: x[1,9] + x[2,9] = 1
 allocateEach[10]: x[1,10] + x[2,10] = 1
 allocateEach[11]: x[1,11] + x[2,11] = 1
 allocateEach[12]: x[1,12] + x[2,12] = 1
 allocateEach[13]: x[1,13] + x[2,13] = 1
 allocateEach[14]: x[1,14] + x[2,14] = 1
 allocateEach[15]: x[1,15] + x[2,15] = 1
 allocateEach[16]: x[1,16] + x[2,16] = 1
 allocateEach[17]: x[1,17] + x[2,17] = 1
 allocateEach[18]: x[1,18] + x[2,18] = 1
 allocateAllCash: cashProportion[1] + cashProportion[2] = 1
 findWorstP[1,2]: z + 0.0601702818977707 cashProportion[1]
   - 0.0601702818977707 cashProportion[2] + 0.0623163552854579 x[1,1]
   + 0.0397324428131613 x[1,2] + 0.092802631446995 x[1,3]
   + 0.0509842855280444 x[1,4] + 0.00969744376585738 x[1,5]
   + 0.0553666877262653 x[1,6] + 0.016957991114855 x[1,7]
   + 0.075403391598223 x[1,8] + 0.0475244943189226 x[1,9]
   + 0.0179307440055357 x[1,10] + 0.0435131421924045 x[1,11]
   + 0.0674809711483498 x[1,12] + 0.055557226952275 x[1,13]
   + 0.0994213624557498 x[1,14] + 0.0289218488321951 x[1,15]
   + 0.0571918529438311 x[1,16] + 0.0244692479717601 x[1,17]
   + 0.0945575980023467 x[1,18] - 0.0623163552854579 x[2,1]
   - 0.0397324428131613 x[2,2] - 0.092802631446995 x[2,3]
   - 0.0509842855280444 x[2,4] - 0.00969744376585738 x[2,5]
   - 0.0553666877262653 x[2,6] - 0.016957991114855 x[2,7]
   - 0.075403391598223 x[2,8] - 0.0475244943189226 x[2,9]
   - 0.0179307440055357 x[2,10] - 0.0435131421924045 x[2,11]
   - 0.0674809711483498 x[2,12] - 0.055557226952275 x[2,13]
   - 0.0994213624557498 x[2,14] - 0.0289218488321951 x[2,15]
   - 0.0571918529438311 x[2,16] - 0.0244692479717601 x[2,17]
   - 0.0945575980023467 x[2,18] >= 0
 findWorstP[2,1]: z - 0.0550165966733298 cashProportion[1]
   + 0.0550165966733298 cashProportion[2] - 0.0524124777641255 x[1,1]
   - 0.0876047607694988 x[1,2] - 0.0173760751159933 x[1,3]
   - 0.0461222468778081 x[1,4] - 0.0236663060023107 x[1,5]
   - 0.0858258908103945 x[1,6] - 0.0732545984705386 x[1,7]
   - 0.0304425168259092 x[1,8] - 0.0426286929890517 x[1,9]
   - 0.0687432375433256 x[1,10] - 0.0653688862806947 x[1,11]
   - 0.00308092941370647 x[1,12] - 0.057712409910323 x[1,13]
   - 0.0798565900713382 x[1,14] - 0.0645619761961525 x[1,15]
   - 0.0557868290267564 x[1,16] - 0.0862018375543289 x[1,17]
   - 0.00433714170441417 x[1,18] + 0.0524124777641255 x[2,1]
   + 0.0876047607694988 x[2,2] + 0.0173760751159933 x[2,3]
   + 0.0461222468778081 x[2,4] + 0.0236663060023107 x[2,5]
   + 0.0858258908103945 x[2,6] + 0.0732545984705386 x[2,7]
   + 0.0304425168259092 x[2,8] + 0.0426286929890517 x[2,9]
   + 0.0687432375433256 x[2,10] + 0.0653688862806947 x[2,11]
   + 0.00308092941370647 x[2,12] + 0.057712409910323 x[2,13]
   + 0.0798565900713382 x[2,14] + 0.0645619761961525 x[2,15]
   + 0.0557868290267564 x[2,16] + 0.0862018375543289 x[2,17]
   + 0.00433714170441417 x[2,18] >= 0
Bounds
 z <= 1
 -infinity <= cashProportion[1] <= 1
 -infinity <= cashProportion[2] <= 1
Binaries
 x[1,1] x[1,2] x[1,3] x[1,4] x[1,5] x[1,6] x[1,7] x[1,8] x[1,9] x[1,10]
 x[1,11] x[1,12] x[1,13] x[1,14] x[1,15] x[1,16] x[1,17] x[1,18] x[2,1]
 x[2,2] x[2,3] x[2,4] x[2,5] x[2,6] x[2,7] x[2,8] x[2,9] x[2,10] x[2,11]
 x[2,12] x[2,13] x[2,14] x[2,15] x[2,16] x[2,17] x[2,18]
End
