data/mps_files/q3/38_7.mps
NAME foo
ROWS
 N  OBJ
 E  allocateEach[1]
 E  allocateEach[2]
 E  allocateEach[3]
 E  allocateEach[4]
 E  allocateEach[5]
 E  allocateEach[6]
 E  allocateEach[7]
 E  allocateEach[8]
 E  allocateEach[9]
 E  allocateEach[10]
 E  allocateEach[11]
 E  allocateEach[12]
 E  allocateEach[13]
 E  allocateEach[14]
 E  allocateEach[15]
 E  allocateEach[16]
 E  allocateEach[17]
 E  allocateEach[18]
 E  allocateAllCash
 G  findWorstP[1,2]
 G  findWorstP[2,1]
COLUMNS
    z         OBJ       1
    z         findWorstP[1,2]  1
    z         findWorstP[2,1]  1
    cashProportion[1]  allocateAllCash  1
    cashProportion[1]  findWorstP[1,2]  6.0170281897770711e-02
    cashProportion[1]  findWorstP[2,1]  -0.0550165966733298
    cashProportion[2]  allocateAllCash  1
    cashProportion[2]  findWorstP[1,2]  -6.0170281897770711e-02
    cashProportion[2]  findWorstP[2,1]  0.0550165966733298
    MARKER    'MARKER'                 'INTORG'
    x[1,1]    allocateEach[1]  1
    x[1,1]    findWorstP[1,2]  6.2316355285457856e-02
    x[1,1]    findWorstP[2,1]  -5.2412477764125519e-02
    x[1,2]    allocateEach[2]  1
    x[1,2]    findWorstP[1,2]  3.9732442813161253e-02
    x[1,2]    findWorstP[2,1]  -8.7604760769498816e-02
    x[1,3]    allocateEach[3]  1
    x[1,3]    findWorstP[1,2]  9.2802631446995007e-02
    x[1,3]    findWorstP[2,1]  -1.7376075115993327e-02
    x[1,4]    allocateEach[4]  1
    x[1,4]    findWorstP[1,2]  5.0984285528044369e-02
    x[1,4]    findWorstP[2,1]  -4.6122246877808144e-02
    x[1,5]    allocateEach[5]  1
    x[1,5]    findWorstP[1,2]  9.6974437658573776e-03
    x[1,5]    findWorstP[2,1]  -2.3666306002310702e-02
    x[1,6]    allocateEach[6]  1
    x[1,6]    findWorstP[1,2]  5.5366687726265344e-02
    x[1,6]    findWorstP[2,1]  -8.5825890810394490e-02
    x[1,7]    allocateEach[7]  1
    x[1,7]    findWorstP[1,2]  1.6957991114855044e-02
    x[1,7]    findWorstP[2,1]  -7.3254598470538626e-02
    x[1,8]    allocateEach[8]  1
    x[1,8]    findWorstP[1,2]  7.5403391598222985e-02
    x[1,8]    findWorstP[2,1]  -3.0442516825909156e-02
    x[1,9]    allocateEach[9]  1
    x[1,9]    findWorstP[1,2]  4.7524494318922555e-02
    x[1,9]    findWorstP[2,1]  -4.2628692989051704e-02
    x[1,10]   allocateEach[10]  1
    x[1,10]   findWorstP[1,2]  1.7930744005535668e-02
    x[1,10]   findWorstP[2,1]  -6.8743237543325578e-02
    x[1,11]   allocateEach[11]  1
    x[1,11]   findWorstP[1,2]  4.3513142192404514e-02
    x[1,11]   findWorstP[2,1]  -6.5368886280694677e-02
    x[1,12]   allocateEach[12]  1
    x[1,12]   findWorstP[1,2]  6.7480971148349847e-02
    x[1,12]   findWorstP[2,1]  -3.0809294137064684e-03
    x[1,13]   allocateEach[13]  1
    x[1,13]   findWorstP[1,2]  5.5557226952274955e-02
    x[1,13]   findWorstP[2,1]  -5.7712409910322955e-02
    x[1,14]   allocateEach[14]  1
    x[1,14]   findWorstP[1,2]  9.9421362455749784e-02
    x[1,14]   findWorstP[2,1]  -0.0798565900713382
    x[1,15]   allocateEach[15]  1
    x[1,15]   findWorstP[1,2]  2.8921848832195118e-02
    x[1,15]   findWorstP[2,1]  -0.0645619761961525
    x[1,16]   allocateEach[16]  1
    x[1,16]   findWorstP[1,2]  5.7191852943831056e-02
    x[1,16]   findWorstP[2,1]  -5.5786829026756420e-02
    x[1,17]   allocateEach[17]  1
    x[1,17]   findWorstP[1,2]  2.4469247971760085e-02
    x[1,17]   findWorstP[2,1]  -0.0862018375543289
    x[1,18]   allocateEach[18]  1
    x[1,18]   findWorstP[1,2]  9.4557598002346657e-02
    x[1,18]   findWorstP[2,1]  -4.3371417044141660e-03
    x[2,1]    allocateEach[1]  1
    x[2,1]    findWorstP[1,2]  -6.2316355285457856e-02
    x[2,1]    findWorstP[2,1]  5.2412477764125519e-02
    x[2,2]    allocateEach[2]  1
    x[2,2]    findWorstP[1,2]  -3.9732442813161253e-02
    x[2,2]    findWorstP[2,1]  8.7604760769498816e-02
    x[2,3]    allocateEach[3]  1
    x[2,3]    findWorstP[1,2]  -9.2802631446995007e-02
    x[2,3]    findWorstP[2,1]  1.7376075115993327e-02
    x[2,4]    allocateEach[4]  1
    x[2,4]    findWorstP[1,2]  -5.0984285528044369e-02
    x[2,4]    findWorstP[2,1]  4.6122246877808144e-02
    x[2,5]    allocateEach[5]  1
    x[2,5]    findWorstP[1,2]  -9.6974437658573776e-03
    x[2,5]    findWorstP[2,1]  2.3666306002310702e-02
    x[2,6]    allocateEach[6]  1
    x[2,6]    findWorstP[1,2]  -5.5366687726265344e-02
    x[2,6]    findWorstP[2,1]  8.5825890810394490e-02
    x[2,7]    allocateEach[7]  1
    x[2,7]    findWorstP[1,2]  -1.6957991114855044e-02
    x[2,7]    findWorstP[2,1]  7.3254598470538626e-02
    x[2,8]    allocateEach[8]  1
    x[2,8]    findWorstP[1,2]  -7.5403391598222985e-02
    x[2,8]    findWorstP[2,1]  3.0442516825909156e-02
    x[2,9]    allocateEach[9]  1
    x[2,9]    findWorstP[1,2]  -4.7524494318922555e-02
    x[2,9]    findWorstP[2,1]  4.2628692989051704e-02
    x[2,10]   allocateEach[10]  1
    x[2,10]   findWorstP[1,2]  -1.7930744005535668e-02
    x[2,10]   findWorstP[2,1]  6.8743237543325578e-02
    x[2,11]   allocateEach[11]  1
    x[2,11]   findWorstP[1,2]  -4.3513142192404514e-02
    x[2,11]   findWorstP[2,1]  6.5368886280694677e-02
    x[2,12]   allocateEach[12]  1
    x[2,12]   findWorstP[1,2]  -6.7480971148349847e-02
    x[2,12]   findWorstP[2,1]  3.0809294137064684e-03
    x[2,13]   allocateEach[13]  1
    x[2,13]   findWorstP[1,2]  -5.5557226952274955e-02
    x[2,13]   findWorstP[2,1]  5.7712409910322955e-02
    x[2,14]   allocateEach[14]  1
    x[2,14]   findWorstP[1,2]  -9.9421362455749784e-02
    x[2,14]   findWorstP[2,1]  0.0798565900713382
    x[2,15]   allocateEach[15]  1
    x[2,15]   findWorstP[1,2]  -2.8921848832195118e-02
    x[2,15]   findWorstP[2,1]  0.0645619761961525
    x[2,16]   allocateEach[16]  1
    x[2,16]   findWorstP[1,2]  -5.7191852943831056e-02
    x[2,16]   findWorstP[2,1]  5.5786829026756420e-02
    x[2,17]   allocateEach[17]  1
    x[2,17]   findWorstP[1,2]  -2.4469247971760085e-02
    x[2,17]   findWorstP[2,1]  0.0862018375543289
    x[2,18]   allocateEach[18]  1
    x[2,18]   findWorstP[1,2]  -9.4557598002346657e-02
    x[2,18]   findWorstP[2,1]  4.3371417044141660e-03
    MARKER    'MARKER'                 'INTEND'
RHS
    RHS1      allocateEach[1]  1
    RHS1      allocateEach[2]  1
    RHS1      allocateEach[3]  1
    RHS1      allocateEach[4]  1
    RHS1      allocateEach[5]  1
    RHS1      allocateEach[6]  1
    RHS1      allocateEach[7]  1
    RHS1      allocateEach[8]  1
    RHS1      allocateEach[9]  1
    RHS1      allocateEach[10]  1
    RHS1      allocateEach[11]  1
    RHS1      allocateEach[12]  1
    RHS1      allocateEach[13]  1
    RHS1      allocateEach[14]  1
    RHS1      allocateEach[15]  1
    RHS1      allocateEach[16]  1
    RHS1      allocateEach[17]  1
    RHS1      allocateEach[18]  1
    RHS1      allocateAllCash  1
BOUNDS
 UP BND1      z         1
 MI BND1      cashProportion[1]
 UP BND1      cashProportion[1]  1
 MI BND1      cashProportion[2]
 UP BND1      cashProportion[2]  1
 BV BND1      x[1,1]  
 BV BND1      x[1,2]  
 BV BND1      x[1,3]  
 BV BND1      x[1,4]  
 BV BND1      x[1,5]  
 BV BND1      x[1,6]  
 BV BND1      x[1,7]  
 BV BND1      x[1,8]  
 BV BND1      x[1,9]  
 BV BND1      x[1,10] 
 BV BND1      x[1,11] 
 BV BND1      x[1,12] 
 BV BND1      x[1,13] 
 BV BND1      x[1,14] 
 BV BND1      x[1,15] 
 BV BND1      x[1,16] 
 BV BND1      x[1,17] 
 BV BND1      x[1,18] 
 BV BND1      x[2,1]  
 BV BND1      x[2,2]  
 BV BND1      x[2,3]  
 BV BND1      x[2,4]  
 BV BND1      x[2,5]  
 BV BND1      x[2,6]  
 BV BND1      x[2,7]  
 BV BND1      x[2,8]  
 BV BND1      x[2,9]  
 BV BND1      x[2,10] 
 BV BND1      x[2,11] 
 BV BND1      x[2,12] 
 BV BND1      x[2,13] 
 BV BND1      x[2,14] 
 BV BND1      x[2,15] 
 BV BND1      x[2,16] 
 BV BND1      x[2,17] 
 BV BND1      x[2,18] 
ENDATA
